Version identifier: 20.1.0.0 | 2020-11-10 | 9bedb6d68
Tried aggregator 2 times.
MIP Presolve eliminated 881 rows and 495 columns.
MIP Presolve modified 1756 coefficients.
Aggregator did 107 substitutions.
Reduced MIP has 718 rows, 605 columns, and 2283 nonzeros.
Reduced MIP has 162 binaries, 443 generals, 0 SOSs, and 0 indicators.
Presolve time = 0.01 sec. (3.71 ticks)
Found incumbent of value 1192.000000 after 0.02 sec. (5.82 ticks)
Probing fixed 20 vars, tightened 183 bounds.
Probing time = 0.00 sec. (0.62 ticks)
Tried aggregator 2 times.
Detecting symmetries...
MIP Presolve eliminated 300 rows and 36 columns.
MIP Presolve modified 65 coefficients.
Aggregator did 11 substitutions.
Reduced MIP has 407 rows, 558 columns, and 1330 nonzeros.
Reduced MIP has 197 binaries, 361 generals, 0 SOSs, and 0 indicators.
Presolve time = 0.00 sec. (1.93 ticks)
Probing time = 0.00 sec. (0.11 ticks)
Clique table members: 1.
MIP emphasis: balance optimality and feasibility.
MIP search method: dynamic search.
Parallel mode: deterministic, using up to 24 threads.
Root relaxation solution time = 0.00 sec. (1.19 ticks)

        Nodes                                         Cuts/
   Node  Left     Objective  IInf  Best Integer    Best Bound    ItCnt     Gap

*     0+    0                         1192.0000        0.0000           100.00%
*     0+    0                           38.0000        0.0000           100.00%
      0     0        0.0000    30       38.0000        0.0000      138  100.00%
*     0+    0                           20.0000        0.0000           100.00%
      0     0        2.0000    87       20.0000      Cuts: 99      279   90.00%
*     0+    0                           15.0000        2.0000            86.67%
      0     0        2.8293   101       15.0000      Cuts: 64      342   81.14%
      0     0        3.2162   123       15.0000      Cuts: 49      407   78.56%
      0     0        3.2162   145       15.0000      Cuts: 40      439   78.56%
      0     0        3.2162   131       15.0000      Cuts: 41      453   78.56%
      0     0        3.2261   146       15.0000      Cuts: 40      485   78.49%
      0     0        3.2471   119       15.0000      Cuts: 42      527   78.35%
      0     0        3.2558   114       15.0000      Cuts: 38      553   78.29%
      0     0        3.2973   118       15.0000      Cuts: 44      589   78.02%
      0     0        3.3077   119       15.0000      Cuts: 53      621   77.95%
      0     0        3.3077   118       15.0000      Cuts: 31      642   77.95%
*     0+    0                           13.0000        3.3077            74.56%
      0     0        cutoff             13.0000       13.0000      642    0.00%
Elapsed time = 0.15 sec. (63.59 ticks, tree = 0.01 MB, solutions = 5)

Implied bound cuts applied:  15
Flow cuts applied:  1
Mixed integer rounding cuts applied:  6
Zero-half cuts applied:  50
Lift and project cuts applied:  1
Gomory fractional cuts applied:  11

Root node processing (before b&c):
  Real time             =    0.15 sec. (63.67 ticks)
Parallel b&c, 24 threads:
  Real time             =    0.00 sec. (0.00 ticks)
  Sync time (average)   =    0.00 sec.
  Wait time (average)   =    0.00 sec.
                          ------------
Total (root+branch&cut) =    0.15 sec. (63.67 ticks)

Solution status = Optimal
Solution LB = 13
Solution UB = 13
Runtime = 0.16023 seconds
	Command being timed: "/home/min/git_repos/CS598MEBProject/CNT-ILP/build/cnt -s 2 ./output/k6_n20/simC_c1_k6_n20_u3_s3_del02.input-right.cnp"
	User time (seconds): 1.34
	System time (seconds): 0.06
	Percent of CPU this job got: 805%
	Elapsed (wall clock) time (h:mm:ss or m:ss): 0:00.17
	Average shared text size (kbytes): 0
	Average unshared data size (kbytes): 0
	Average stack size (kbytes): 0
	Average total size (kbytes): 0
	Maximum resident set size (kbytes): 60504
	Average resident set size (kbytes): 0
	Major (requiring I/O) page faults: 0
	Minor (reclaiming a frame) page faults: 12111
	Voluntary context switches: 2631
	Involuntary context switches: 198
	Swaps: 0
	File system inputs: 0
	File system outputs: 16
	Socket messages sent: 0
	Socket messages received: 0
	Signals delivered: 0
	Page size (bytes): 4096
	Exit status: 0
